NAME          BUSINGLP
ROWS
 N  OBJ
 E  R001
 E  R002
 E  R003
 E  R004
 E  R005
 E  R006
 E  R007
 E  R008
 E  R009
 E  R010
 E  R011
 E  R012
 E  R013
 E  R014
 E  R015
 E  R016
 E  R017
 E  R018
 L  R019
 G  R020
 L  R021
 G  R022
 L  R023
 G  R024
 L  R025
 G  R026
 L  R027
 G  R028
 L  R029
 G  R030
 L  R031
 G  R032
 L  R033
 G  R034
 L  R035
 G  R036
 E  R037
 E  R038
 E  R039
 E  R040
 E  R041
 E  R042
 E  R043
 E  R044
 E  R045
COLUMNS
    XA1S1K6   OBJ          300.00000
    XA1S1K6   R001         1.00000
    XA1S1K6   R019         0.64000
    XA1S1K6   R020         0.70000
    XA1S1K6   R021        -0.36000
    XA1S1K6   R022        -0.30000
    XA1S1K6   R023        -0.36000
    XA1S1K6   R024        -0.30000
    XA1S1K7   OBJ          300.00000
    XA1S1K7   R002         1.00000
    XA1S1K7   R019        -0.36000
    XA1S1K7   R020        -0.30000
    XA1S1K7   R021         0.64000
    XA1S1K7   R022         0.70000
    XA1S1K7   R023        -0.36000
    XA1S1K7   R024        -0.30000
    XA1S1K8   OBJ          300.00000
    XA1S1K8   R003         1.00000
    XA1S1K8   R019        -0.36000
    XA1S1K8   R020        -0.30000
    XA1S1K8   R021        -0.36000
    XA1S1K8   R022        -0.30000
    XA1S1K8   R023         0.64000
    XA1S1K8   R024         0.70000
    XA1S2K6   OBJ            0.00000
    XA1S2K6   R001         1.00000
    XA1S2K6   R025         0.64000
    XA1S2K6   R026         0.70000
    XA1S2K6   R027        -0.36000
    XA1S2K6   R028        -0.30000
    XA1S2K6   R029        -0.36000
    XA1S2K6   R030        -0.30000
    XA1S2K7   OBJ            0.00000
    XA1S2K7   R002         1.00000
    XA1S2K7   R025        -0.36000
    XA1S2K7   R026        -0.30000
    XA1S2K7   R027         0.64000
    XA1S2K7   R028         0.70000
    XA1S2K7   R029        -0.36000
    XA1S2K7   R030        -0.30000
    XA1S2K8   OBJ            0.00000
    XA1S2K8   R003         1.00000
    XA1S2K8   R025        -0.36000
    XA1S2K8   R026        -0.30000
    XA1S2K8   R027        -0.36000
    XA1S2K8   R028        -0.30000
    XA1S2K8   R029         0.64000
    XA1S2K8   R030         0.70000
    XA1S3K6   OBJ          700.00000
    XA1S3K6   R001         1.00000
    XA1S3K6   R031         0.64000
    XA1S3K6   R032         0.70000
    XA1S3K6   R033        -0.36000
    XA1S3K6   R034        -0.30000
    XA1S3K6   R035        -0.36000
    XA1S3K6   R036        -0.30000
    XA1S3K7   OBJ          700.00000
    XA1S3K7   R002         1.00000
    XA1S3K7   R031        -0.36000
    XA1S3K7   R032        -0.30000
    XA1S3K7   R033         0.64000
    XA1S3K7   R034         0.70000
    XA1S3K7   R035        -0.36000
    XA1S3K7   R036        -0.30000
    XA1S3K8   OBJ          700.00000
    XA1S3K8   R003         1.00000
    XA1S3K8   R031        -0.36000
    XA1S3K8   R032        -0.30000
    XA1S3K8   R033        -0.36000
    XA1S3K8   R034        -0.30000
    XA1S3K8   R035         0.64000
    XA1S3K8   R036         0.70000
    XA2S1K6   OBJ            0.00000
    XA2S1K6   R037         1.00000
    XA2S1K7   OBJ            0.00000
    XA2S1K7   R038         1.00000
    XA2S1K8   OBJ            0.00000
    XA2S1K8   R039         1.00000
    XA2S2K6   OBJ          400.00000
    XA2S2K6   R004         1.00000
    XA2S2K6   R025         0.64000
    XA2S2K6   R026         0.70000
    XA2S2K6   R027        -0.36000
    XA2S2K6   R028        -0.30000
    XA2S2K6   R029        -0.36000
    XA2S2K6   R030        -0.30000
    XA2S2K7   OBJ          400.00000
    XA2S2K7   R005         1.00000
    XA2S2K7   R025        -0.36000
    XA2S2K7   R026        -0.30000
    XA2S2K7   R027         0.64000
    XA2S2K7   R028         0.70000
    XA2S2K7   R029        -0.36000
    XA2S2K7   R030        -0.30000
    XA2S2K8   OBJ          400.00000
    XA2S2K8   R006         1.00000
    XA2S2K8   R025        -0.36000
    XA2S2K8   R026        -0.30000
    XA2S2K8   R027        -0.36000
    XA2S2K8   R028        -0.30000
    XA2S2K8   R029         0.64000
    XA2S2K8   R030         0.70000
    XA2S3K6   OBJ          500.00000
    XA2S3K6   R004         1.00000
    XA2S3K6   R031         0.64000
    XA2S3K6   R032         0.70000
    XA2S3K6   R033        -0.36000
    XA2S3K6   R034        -0.30000
    XA2S3K6   R035        -0.36000
    XA2S3K6   R036        -0.30000
    XA2S3K7   OBJ          500.00000
    XA2S3K7   R005         1.00000
    XA2S3K7   R031        -0.36000
    XA2S3K7   R032        -0.30000
    XA2S3K7   R033         0.64000
    XA2S3K7   R034         0.70000
    XA2S3K7   R035        -0.36000
    XA2S3K7   R036        -0.30000
    XA2S3K8   OBJ          500.00000
    XA2S3K8   R006         1.00000
    XA2S3K8   R031        -0.36000
    XA2S3K8   R032        -0.30000
    XA2S3K8   R033        -0.36000
    XA2S3K8   R034        -0.30000
    XA2S3K8   R035         0.64000
    XA2S3K8   R036         0.70000
    XA3S1K6   OBJ          600.00000
    XA3S1K6   R007         1.00000
    XA3S1K6   R019         0.64000
    XA3S1K6   R020         0.70000
    XA3S1K6   R021        -0.36000
    XA3S1K6   R022        -0.30000
    XA3S1K6   R023        -0.36000
    XA3S1K6   R024        -0.30000
    XA3S1K7   OBJ          600.00000
    XA3S1K7   R008         1.00000
    XA3S1K7   R019        -0.36000
    XA3S1K7   R020        -0.30000
    XA3S1K7   R021         0.64000
    XA3S1K7   R022         0.70000
    XA3S1K7   R023        -0.36000
    XA3S1K7   R024        -0.30000
    XA3S1K8   OBJ          600.00000
    XA3S1K8   R009         1.00000
    XA3S1K8   R019        -0.36000
    XA3S1K8   R020        -0.30000
    XA3S1K8   R021        -0.36000
    XA3S1K8   R022        -0.30000
    XA3S1K8   R023         0.64000
    XA3S1K8   R024         0.70000
    XA3S2K6   OBJ          300.00000
    XA3S2K6   R007         1.00000
    XA3S2K6   R025         0.64000
    XA3S2K6   R026         0.70000
    XA3S2K6   R027        -0.36000
    XA3S2K6   R028        -0.30000
    XA3S2K6   R029        -0.36000
    XA3S2K6   R030        -0.30000
    XA3S2K7   OBJ          300.00000
    XA3S2K7   R008         1.00000
    XA3S2K7   R025        -0.36000
    XA3S2K7   R026        -0.30000
    XA3S2K7   R027         0.64000
    XA3S2K7   R028         0.70000
    XA3S2K7   R029        -0.36000
    XA3S2K7   R030        -0.30000
    XA3S2K8   OBJ          300.00000
    XA3S2K8   R009         1.00000
    XA3S2K8   R025        -0.36000
    XA3S2K8   R026        -0.30000
    XA3S2K8   R027        -0.36000
    XA3S2K8   R028        -0.30000
    XA3S2K8   R029         0.64000
    XA3S2K8   R030         0.70000
    XA3S3K6   OBJ          200.00000
    XA3S3K6   R007         1.00000
    XA3S3K6   R031         0.64000
    XA3S3K6   R032         0.70000
    XA3S3K6   R033        -0.36000
    XA3S3K6   R034        -0.30000
    XA3S3K6   R035        -0.36000
    XA3S3K6   R036        -0.30000
    XA3S3K7   OBJ          200.00000
    XA3S3K7   R008         1.00000
    XA3S3K7   R031        -0.36000
    XA3S3K7   R032        -0.30000
    XA3S3K7   R033         0.64000
    XA3S3K7   R034         0.70000
    XA3S3K7   R035        -0.36000
    XA3S3K7   R036        -0.30000
    XA3S3K8   OBJ          200.00000
    XA3S3K8   R009         1.00000
    XA3S3K8   R031        -0.36000
    XA3S3K8   R032        -0.30000
    XA3S3K8   R033        -0.36000
    XA3S3K8   R034        -0.30000
    XA3S3K8   R035         0.64000
    XA3S3K8   R036         0.70000
    XA4S1K6   OBJ          200.00000
    XA4S1K6   R010         1.00000
    XA4S1K6   R019         0.64000
    XA4S1K6   R020         0.70000
    XA4S1K6   R021        -0.36000
    XA4S1K6   R022        -0.30000
    XA4S1K6   R023        -0.36000
    XA4S1K6   R024        -0.30000
    XA4S1K7   OBJ          200.00000
    XA4S1K7   R011         1.00000
    XA4S1K7   R019        -0.36000
    XA4S1K7   R020        -0.30000
    XA4S1K7   R021         0.64000
    XA4S1K7   R022         0.70000
    XA4S1K7   R023        -0.36000
    XA4S1K7   R024        -0.30000
    XA4S1K8   OBJ          200.00000
    XA4S1K8   R012         1.00000
    XA4S1K8   R019        -0.36000
    XA4S1K8   R020        -0.30000
    XA4S1K8   R021        -0.36000
    XA4S1K8   R022        -0.30000
    XA4S1K8   R023         0.64000
    XA4S1K8   R024         0.70000
    XA4S2K6   OBJ          500.00000
    XA4S2K6   R010         1.00000
    XA4S2K6   R025         0.64000
    XA4S2K6   R026         0.70000
    XA4S2K6   R027        -0.36000
    XA4S2K6   R028        -0.30000
    XA4S2K6   R029        -0.36000
    XA4S2K6   R030        -0.30000
    XA4S2K7   OBJ          500.00000
    XA4S2K7   R011         1.00000
    XA4S2K7   R025        -0.36000
    XA4S2K7   R026        -0.30000
    XA4S2K7   R027         0.64000
    XA4S2K7   R028         0.70000
    XA4S2K7   R029        -0.36000
    XA4S2K7   R030        -0.30000
    XA4S2K8   OBJ          500.00000
    XA4S2K8   R012         1.00000
    XA4S2K8   R025        -0.36000
    XA4S2K8   R026        -0.30000
    XA4S2K8   R027        -0.36000
    XA4S2K8   R028        -0.30000
    XA4S2K8   R029         0.64000
    XA4S2K8   R030         0.70000
    XA4S3K6   OBJ            0.00000
    XA4S3K6   R040         1.00000
    XA4S3K7   OBJ            0.00000
    XA4S3K7   R041         1.00000
    XA4S3K8   OBJ            0.00000
    XA4S3K8   R042         1.00000
    XA5S1K6   OBJ            0.00000
    XA5S1K6   R013         1.00000
    XA5S1K6   R019         0.64000
    XA5S1K6   R020         0.70000
    XA5S1K6   R021        -0.36000
    XA5S1K6   R022        -0.30000
    XA5S1K6   R023        -0.36000
    XA5S1K6   R024        -0.30000
    XA5S1K7   OBJ            0.00000
    XA5S1K7   R014         1.00000
    XA5S1K7   R019        -0.36000
    XA5S1K7   R020        -0.30000
    XA5S1K7   R021         0.64000
    XA5S1K7   R022         0.70000
    XA5S1K7   R023        -0.36000
    XA5S1K7   R024        -0.30000
    XA5S1K8   OBJ            0.00000
    XA5S1K8   R015         1.00000
    XA5S1K8   R019        -0.36000
    XA5S1K8   R020        -0.30000
    XA5S1K8   R021        -0.36000
    XA5S1K8   R022        -0.30000
    XA5S1K8   R023         0.64000
    XA5S1K8   R024         0.70000
    XA5S2K6   OBJ            0.00000
    XA5S2K6   R043         1.00000
    XA5S2K7   OBJ            0.00000
    XA5S2K7   R044         1.00000
    XA5S2K8   OBJ            0.00000
    XA5S2K8   R045         1.00000
    XA5S3K6   OBJ          400.00000
    XA5S3K6   R013         1.00000
    XA5S3K6   R031         0.64000
    XA5S3K6   R032         0.70000
    XA5S3K6   R033        -0.36000
    XA5S3K6   R034        -0.30000
    XA5S3K6   R035        -0.36000
    XA5S3K6   R036        -0.30000
    XA5S3K7   OBJ          400.00000
    XA5S3K7   R014         1.00000
    XA5S3K7   R031        -0.36000
    XA5S3K7   R032        -0.30000
    XA5S3K7   R033         0.64000
    XA5S3K7   R034         0.70000
    XA5S3K7   R035        -0.36000
    XA5S3K7   R036        -0.30000
    XA5S3K8   OBJ          400.00000
    XA5S3K8   R015         1.00000
    XA5S3K8   R031        -0.36000
    XA5S3K8   R032        -0.30000
    XA5S3K8   R033        -0.36000
    XA5S3K8   R034        -0.30000
    XA5S3K8   R035         0.64000
    XA5S3K8   R036         0.70000
    XA6S1K6   OBJ          500.00000
    XA6S1K6   R016         1.00000
    XA6S1K6   R019         0.64000
    XA6S1K6   R020         0.70000
    XA6S1K6   R021        -0.36000
    XA6S1K6   R022        -0.30000
    XA6S1K6   R023        -0.36000
    XA6S1K6   R024        -0.30000
    XA6S1K7   OBJ          500.00000
    XA6S1K7   R017         1.00000
    XA6S1K7   R019        -0.36000
    XA6S1K7   R020        -0.30000
    XA6S1K7   R021         0.64000
    XA6S1K7   R022         0.70000
    XA6S1K7   R023        -0.36000
    XA6S1K7   R024        -0.30000
    XA6S1K8   OBJ          500.00000
    XA6S1K8   R018         1.00000
    XA6S1K8   R019        -0.36000
    XA6S1K8   R020        -0.30000
    XA6S1K8   R021        -0.36000
    XA6S1K8   R022        -0.30000
    XA6S1K8   R023         0.64000
    XA6S1K8   R024         0.70000
    XA6S2K6   OBJ          300.00000
    XA6S2K6   R016         1.00000
    XA6S2K6   R025         0.64000
    XA6S2K6   R026         0.70000
    XA6S2K6   R027        -0.36000
    XA6S2K6   R028        -0.30000
    XA6S2K6   R029        -0.36000
    XA6S2K6   R030        -0.30000
    XA6S2K7   OBJ          300.00000
    XA6S2K7   R017         1.00000
    XA6S2K7   R025        -0.36000
    XA6S2K7   R026        -0.30000
    XA6S2K7   R027         0.64000
    XA6S2K7   R028         0.70000
    XA6S2K7   R029        -0.36000
    XA6S2K7   R030        -0.30000
    XA6S2K8   OBJ          300.00000
    XA6S2K8   R018         1.00000
    XA6S2K8   R025        -0.36000
    XA6S2K8   R026        -0.30000
    XA6S2K8   R027        -0.36000
    XA6S2K8   R028        -0.30000
    XA6S2K8   R029         0.64000
    XA6S2K8   R030         0.70000
    XA6S3K6   OBJ            0.00000
    XA6S3K6   R016         1.00000
    XA6S3K6   R031         0.64000
    XA6S3K6   R032         0.70000
    XA6S3K6   R033        -0.36000
    XA6S3K6   R034        -0.30000
    XA6S3K6   R035        -0.36000
    XA6S3K6   R036        -0.30000
    XA6S3K7   OBJ            0.00000
    XA6S3K7   R017         1.00000
    XA6S3K7   R031        -0.36000
    XA6S3K7   R032        -0.30000
    XA6S3K7   R033         0.64000
    XA6S3K7   R034         0.70000
    XA6S3K7   R035        -0.36000
    XA6S3K7   R036        -0.30000
    XA6S3K8   OBJ            0.00000
    XA6S3K8   R018         1.00000
    XA6S3K8   R031        -0.36000
    XA6S3K8   R032        -0.30000
    XA6S3K8   R033        -0.36000
    XA6S3K8   R034        -0.30000
    XA6S3K8   R035         0.64000
    XA6S3K8   R036         0.70000
RHS
    RHS1      R001       144.00000
    RHS1      R002       171.00000
    RHS1      R003       135.00000
    RHS1      R004       222.00000
    RHS1      R005       168.00000
    RHS1      R006       210.00000
    RHS1      R007       165.00000
    RHS1      R008       176.00000
    RHS1      R009       209.00000
    RHS1      R010        98.00000
    RHS1      R011       140.00000
    RHS1      R012       112.00000
    RHS1      R013       195.00000
    RHS1      R014       170.00000
    RHS1      R015       135.00000
    RHS1      R016       153.00000
    RHS1      R017       126.00000
    RHS1      R018       171.00000
ENDATA
